GLKH-1.1/TMP/mtspf.pid11963.atsp
NAME : mtspf.pid11963.gtsp
TYPE : ATSP
DIMENSION : 45
EDGE_WEIGHT_TYPE : EXPLICIT
EDGE_WEIGHT_FORMAT : FULL_MATRIX
EDGE_WEIGHT_SECTION
999999 5368709 5368709 5368709 5368709 5368738 5368739 5368738 5368737 5368740 5368741 5368740 5368739 5368723 5368722 5368721 5368722 5368718 5368719 5368718 5368717 5368739 5368740 5368739 5368738 5368736 5368737 5368736 5368735 5368742 5368743 5368742 5368741 5368733 5368734 5368733 5368732 5368746 5368747 5368746 5368745 5368739 5368740 5368739 5368738 
5368709 999999 5368709 5368709 5368709 5368727 5368728 5368727 5368726 5368763 5368764 5368763 5368762 5368744 5368745 5368744 5368743 5368741 5368742 5368741 5368740 5368740 5368741 5368740 5368739 5368733 5368734 5368733 5368732 5368737 5368738 5368737 5368736 5368748 5368749 5368748 5368747 5368735 5368736 5368735 5368734 5368738 5368739 5368738 5368737 
5368709 5368709 999999 5368709 5368709 5368735 5368736 5368737 5368736 5368727 5368728 5368727 5368726 5368738 5368737 5368738 5368739 5368725 5368724 5368725 5368726 5368722 5368723 5368724 5368723 5368725 5368726 5368727 5368726 5368725 5368726 5368727 5368726 5368716 5368717 5368718 5368717 5368729 5368730 5368731 5368730 5368722 5368723 5368724 5368723 
5368709 5368709 5368709 999999 5368709 5368747 5368748 5368749 5368748 5368737 5368736 5368735 5368736 5368718 5368717 5368716 5368717 5368723 5368724 5368725 5368724 5368748 5368749 5368750 5368749 5368745 5368746 5368747 5368746 5368751 5368752 5368753 5368752 5368742 5368743 5368744 5368743 5368755 5368756 5368757 5368756 5368748 5368749 5368750 5368749 
5368709 5368709 5368709 5368709 999999 5368748 5368749 5368750 5368749 5368724 5368723 5368724 5368725 5368743 5368742 5368743 5368744 5368730 5368729 5368730 5368731 5368731 5368732 5368733 5368732 5368738 5368739 5368740 5368739 5368734 5368735 5368736 5368735 5368723 5368724 5368725 5368724 5368740 5368741 5368742 5368741 5368733 5368734 5368735 5368734 
5368709 5368709 5368709 5368709 5368709 999999 0 10737418 10737418 5368752 5368753 5368752 5368751 5368749 5368748 5368747 5368748 5368736 5368735 5368734 5368735 5368729 5368730 5368729 5368728 5368722 5368723 5368722 5368721 5368726 5368727 5368726 5368725 5368737 5368738 5368737 5368736 5368720 5368721 5368720 5368719 5368727 5368728 5368727 5368726 
5368709 5368709 5368709 5368709 5368709 10737418 999999 0 10737418 5368751 5368752 5368751 5368750 5368748 5368747 5368748 5368749 5368735 5368734 5368735 5368736 5368728 5368729 5368728 5368727 5368721 5368722 5368721 5368720 5368725 5368726 5368725 5368724 5368736 5368737 5368736 5368735 5368719 5368720 5368719 5368718 5368726 5368727 5368726 5368725 
5368709 5368709 5368709 5368709 5368709 10737418 10737418 999999 0 5368752 5368751 5368750 5368751 5368749 5368748 5368749 5368750 5368736 5368735 5368736 5368737 5368729 5368728 5368727 5368728 5368722 5368721 5368720 5368721 5368726 5368725 5368724 5368725 5368737 5368736 5368735 5368736 5368718 5368719 5368718 5368717 5368727 5368726 5368725 5368726 
5368709 5368709 5368709 5368709 5368709 0 10737418 10737418 999999 5368753 5368752 5368751 5368752 5368750 5368749 5368748 5368749 5368737 5368736 5368735 5368736 5368730 5368729 5368728 5368729 5368723 5368722 5368721 5368722 5368727 5368726 5368725 5368726 5368738 5368737 5368736 5368737 5368719 5368720 5368719 5368718 5368728 5368727 5368726 5368727 
5368709 5368709 5368709 5368709 5368709 5368750 5368751 5368752 5368751 999999 0 10737418 10737418 5368729 5368728 5368729 5368730 5368732 5368733 5368734 5368733 5368733 5368734 5368735 5368734 5368740 5368741 5368742 5368741 5368736 5368737 5368738 5368737 5368725 5368726 5368727 5368726 5368742 5368743 5368744 5368743 5368735 5368736 5368737 5368736 
5368709 5368709 5368709 5368709 5368709 5368751 5368752 5368753 5368752 10737418 999999 0 10737418 5368730 5368729 5368730 5368731 5368733 5368734 5368735 5368734 5368734 5368735 5368736 5368735 5368741 5368742 5368743 5368742 5368737 5368738 5368739 5368738 5368726 5368727 5368728 5368727 5368743 5368744 5368745 5368744 5368736 5368737 5368738 5368737 
5368709 5368709 5368709 5368709 5368709 5368752 5368751 5368752 5368753 10737418 10737418 999999 0 5368731 5368730 5368731 5368732 5368734 5368733 5368734 5368735 5368735 5368734 5368735 5368736 5368742 5368741 5368742 5368743 5368738 5368737 5368738 5368739 5368727 5368726 5368727 5368728 5368744 5368743 5368744 5368745 5368737 5368736 5368737 5368738 
5368709 5368709 5368709 5368709 5368709 5368751 5368750 5368751 5368752 0 10737418 10737418 999999 5368730 5368729 5368730 5368731 5368733 5368732 5368733 5368734 5368734 5368733 5368734 5368735 5368741 5368740 5368741 5368742 5368737 5368736 5368737 5368738 5368726 5368725 5368726 5368727 5368743 5368742 5368743 5368744 5368736 5368735 5368736 5368737 
5368709 5368709 5368709 5368709 5368709 5368749 5368750 5368749 5368748 5368731 5368732 5368731 5368730 999999 0 10737418 10737418 5368725 5368726 5368725 5368724 5368750 5368751 5368750 5368749 5368747 5368748 5368747 5368746 5368753 5368754 5368753 5368752 5368744 5368745 5368744 5368743 5368757 5368758 5368757 5368756 5368750 5368751 5368750 5368749 
5368709 5368709 5368709 5368709 5368709 5368748 5368749 5368750 5368749 5368730 5368731 5368730 5368729 10737418 999999 0 10737418 5368724 5368725 5368726 5368725 5368749 5368750 5368751 5368750 5368746 5368747 5368748 5368747 5368752 5368753 5368754 5368753 5368743 5368744 5368745 5368744 5368756 5368757 5368758 5368757 5368749 5368750 5368751 5368750 
5368709 5368709 5368709 5368709 5368709 5368747 5368748 5368749 5368748 5368729 5368730 5368729 5368728 10737418 10737418 999999 0 5368723 5368724 5368725 5368724 5368748 5368749 5368750 5368749 5368745 5368746 5368747 5368746 5368751 5368752 5368753 5368752 5368742 5368743 5368744 5368743 5368755 5368756 5368757 5368756 5368748 5368749 5368750 5368749 
5368709 5368709 5368709 5368709 5368709 5368748 5368749 5368748 5368747 5368730 5368731 5368730 5368729 0 10737418 10737418 999999 5368724 5368725 5368724 5368723 5368749 5368750 5368749 5368748 5368746 5368747 5368746 5368745 5368752 5368753 5368752 5368751 5368743 5368744 5368743 5368742 5368756 5368757 5368756 5368755 5368749 5368750 5368749 5368748 
5368709 5368709 5368709 5368709 5368709 5368736 5368737 5368736 5368735 5368734 5368735 5368734 5368733 5368725 5368724 5368723 5368724 999999 0 10737418 10737418 5368737 5368738 5368737 5368736 5368734 5368735 5368734 5368733 5368740 5368741 5368740 5368739 5368731 5368732 5368731 5368730 5368744 5368745 5368744 5368743 5368737 5368738 5368737 5368736 
5368709 5368709 5368709 5368709 5368709 5368735 5368736 5368737 5368736 5368733 5368734 5368733 5368732 5368724 5368723 5368724 5368725 10737418 999999 0 10737418 5368736 5368737 5368738 5368737 5368733 5368734 5368735 5368734 5368739 5368740 5368741 5368740 5368730 5368731 5368732 5368731 5368743 5368744 5368745 5368744 5368736 5368737 5368738 5368737 
5368709 5368709 5368709 5368709 5368709 5368734 5368735 5368736 5368735 5368734 5368733 5368732 5368733 5368725 5368724 5368725 5368726 10737418 10737418 999999 0 5368735 5368736 5368737 5368736 5368732 5368733 5368734 5368733 5368738 5368739 5368740 5368739 5368729 5368730 5368731 5368730 5368742 5368743 5368744 5368743 5368735 5368736 5368737 5368736 
5368709 5368709 5368709 5368709 5368709 5368735 5368736 5368735 5368734 5368735 5368734 5368733 5368734 5368726 5368725 5368724 5368725 0 10737418 10737418 999999 5368736 5368737 5368736 5368735 5368733 5368734 5368733 5368732 5368739 5368740 5368739 5368738 5368730 5368731 5368730 5368729 5368743 5368744 5368743 5368742 5368736 5368737 5368736 5368735 
5368709 5368709 5368709 5368709 5368709 5368727 5368728 5368729 5368728 5368735 5368736 5368735 5368734 5368750 5368749 5368748 5368749 5368737 5368736 5368735 5368736 999999 0 10737418 10737418 5368717 5368718 5368719 5368718 5368713 5368714 5368715 5368714 5368720 5368721 5368720 5368719 5368719 5368720 5368721 5368720 5368712 5368713 5368714 5368713 
5368709 5368709 5368709 5368709 5368709 5368728 5368729 5368730 5368729 5368734 5368735 5368734 5368733 5368749 5368748 5368749 5368750 5368736 5368735 5368736 5368737 10737418 999999 0 10737418 5368718 5368719 5368720 5368719 5368714 5368715 5368716 5368715 5368719 5368720 5368719 5368718 5368720 5368721 5368722 5368721 5368713 5368714 5368715 5368714 
5368709 5368709 5368709 5368709 5368709 5368729 5368728 5368729 5368730 5368735 5368734 5368733 5368734 5368750 5368749 5368750 5368751 5368737 5368736 5368737 5368738 10737418 10737418 999999 0 5368719 5368718 5368719 5368720 5368713 5368714 5368715 5368714 5368720 5368719 5368718 5368719 5368721 5368720 5368721 5368722 5368714 5368713 5368714 5368715 
5368709 5368709 5368709 5368709 5368709 5368728 5368727 5368728 5368729 5368736 5368735 5368734 5368735 5368751 5368750 5368749 5368750 5368738 5368737 5368736 5368737 0 10737418 10737418 999999 5368718 5368717 5368718 5368719 5368712 5368713 5368714 5368713 5368721 5368720 5368719 5368720 5368720 5368719 5368720 5368721 5368713 5368712 5368713 5368714 
5368709 5368709 5368709 5368709 5368709 5368720 5368721 5368722 5368721 5368742 5368743 5368742 5368741 5368747 5368746 5368745 5368746 5368734 5368733 5368732 5368733 5368719 5368720 5368719 5368718 999999 0 10737418 10737418 5368718 5368719 5368718 5368717 5368727 5368728 5368727 5368726 5368722 5368723 5368722 5368721 5368717 5368718 5368717 5368716 
5368709 5368709 5368709 5368709 5368709 5368721 5368722 5368723 5368722 5368741 5368742 5368741 5368740 5368746 5368745 5368746 5368747 5368733 5368732 5368733 5368734 5368718 5368719 5368718 5368717 10737418 999999 0 10737418 5368717 5368718 5368719 5368718 5368726 5368727 5368726 5368725 5368721 5368722 5368723 5368722 5368716 5368717 5368716 5368715 
5368709 5368709 5368709 5368709 5368709 5368722 5368721 5368722 5368723 5368742 5368741 5368740 5368741 5368747 5368746 5368747 5368748 5368734 5368733 5368734 5368735 5368719 5368718 5368717 5368718 10737418 10737418 999999 0 5368716 5368717 5368718 5368717 5368727 5368726 5368725 5368726 5368720 5368721 5368722 5368721 5368717 5368716 5368715 5368716 
5368709 5368709 5368709 5368709 5368709 5368721 5368720 5368721 5368722 5368743 5368742 5368741 5368742 5368748 5368747 5368746 5368747 5368735 5368734 5368733 5368734 5368720 5368719 5368718 5368719 0 10737418 10737418 999999 5368717 5368718 5368717 5368716 5368728 5368727 5368726 5368727 5368721 5368722 5368721 5368720 5368718 5368717 5368716 5368717 
5368709 5368709 5368709 5368709 5368709 5368724 5368725 5368726 5368725 5368738 5368739 5368738 5368737 5368753 5368752 5368751 5368752 5368740 5368739 5368738 5368739 5368715 5368714 5368713 5368714 5368718 5368717 5368716 5368717 999999 0 10737418 10737418 5368723 5368724 5368723 5368722 5368716 5368717 5368718 5368717 5368715 5368714 5368713 5368714 
5368709 5368709 5368709 5368709 5368709 5368725 5368726 5368727 5368726 5368737 5368738 5368737 5368736 5368752 5368751 5368752 5368753 5368739 5368738 5368739 5368740 5368714 5368713 5368712 5368713 5368717 5368716 5368717 5368718 10737418 999999 0 10737418 5368722 5368723 5368722 5368721 5368717 5368718 5368719 5368718 5368714 5368713 5368714 5368715 
5368709 5368709 5368709 5368709 5368709 5368726 5368725 5368726 5368727 5368738 5368737 5368736 5368737 5368753 5368752 5368753 5368754 5368740 5368739 5368740 5368741 5368715 5368714 5368713 5368714 5368718 5368717 5368718 5368719 10737418 10737418 999999 0 5368723 5368722 5368721 5368722 5368718 5368717 5368718 5368719 5368715 5368714 5368715 5368716 
5368709 5368709 5368709 5368709 5368709 5368725 5368724 5368725 5368726 5368739 5368738 5368737 5368738 5368754 5368753 5368752 5368753 5368741 5368740 5368739 5368740 5368716 5368715 5368714 5368715 5368719 5368718 5368717 5368718 0 10737418 10737418 999999 5368724 5368723 5368722 5368723 5368717 5368716 5368717 5368718 5368716 5368715 5368714 5368715 
5368709 5368709 5368709 5368709 5368709 5368735 5368736 5368737 5368736 5368727 5368728 5368727 5368726 5368744 5368743 5368742 5368743 5368731 5368730 5368729 5368730 5368718 5368719 5368720 5368719 5368725 5368726 5368727 5368726 5368721 5368722 5368723 5368722 999999 0 10737418 10737418 5368727 5368728 5368729 5368728 5368720 5368721 5368722 5368721 
5368709 5368709 5368709 5368709 5368709 5368736 5368737 5368738 5368737 5368726 5368727 5368726 5368725 5368743 5368742 5368743 5368744 5368730 5368729 5368730 5368731 5368719 5368720 5368721 5368720 5368726 5368727 5368728 5368727 5368722 5368723 5368724 5368723 10737418 999999 0 10737418 5368728 5368729 5368730 5368729 5368721 5368722 5368723 5368722 
5368709 5368709 5368709 5368709 5368709 5368737 5368736 5368737 5368738 5368727 5368726 5368725 5368726 5368744 5368743 5368744 5368745 5368731 5368730 5368731 5368732 5368720 5368719 5368720 5368721 5368727 5368726 5368727 5368728 5368723 5368722 5368723 5368724 10737418 10737418 999999 0 5368729 5368728 5368729 5368730 5368722 5368721 5368722 5368723 
5368709 5368709 5368709 5368709 5368709 5368736 5368735 5368736 5368737 5368728 5368727 5368726 5368727 5368745 5368744 5368743 5368744 5368732 5368731 5368730 5368731 5368719 5368718 5368719 5368720 5368726 5368725 5368726 5368727 5368722 5368721 5368722 5368723 0 10737418 10737418 999999 5368728 5368727 5368728 5368729 5368721 5368720 5368721 5368722 
5368709 5368709 5368709 5368709 5368709 5368718 5368717 5368718 5368719 5368744 5368745 5368744 5368743 5368757 5368756 5368755 5368756 5368744 5368743 5368742 5368743 5368721 5368722 5368721 5368720 5368722 5368721 5368720 5368721 5368718 5368719 5368718 5368717 5368729 5368730 5368729 5368728 999999 0 10737418 10737418 5368719 5368718 5368717 5368718 
5368709 5368709 5368709 5368709 5368709 5368719 5368718 5368719 5368720 5368743 5368744 5368743 5368742 5368756 5368755 5368756 5368757 5368743 5368742 5368743 5368744 5368720 5368721 5368720 5368719 5368721 5368720 5368721 5368722 5368717 5368718 5368717 5368716 5368728 5368729 5368728 5368727 10737418 999999 0 10737418 5368718 5368717 5368716 5368717 
5368709 5368709 5368709 5368709 5368709 5368720 5368719 5368720 5368721 5368744 5368743 5368742 5368743 5368757 5368756 5368757 5368758 5368744 5368743 5368744 5368745 5368721 5368720 5368719 5368720 5368722 5368721 5368722 5368723 5368718 5368717 5368716 5368717 5368729 5368728 5368727 5368728 10737418 10737418 999999 0 5368719 5368718 5368717 5368718 
5368709 5368709 5368709 5368709 5368709 5368719 5368718 5368719 5368720 5368745 5368744 5368743 5368744 5368758 5368757 5368756 5368757 5368745 5368744 5368743 5368744 5368722 5368721 5368720 5368721 5368723 5368722 5368721 5368722 5368719 5368718 5368717 5368718 5368730 5368729 5368728 5368729 0 10737418 10737418 999999 5368720 5368719 5368718 5368719 
5368709 5368709 5368709 5368709 5368709 5368725 5368726 5368727 5368726 5368737 5368738 5368737 5368736 5368750 5368749 5368748 5368749 5368737 5368736 5368735 5368736 5368714 5368715 5368714 5368713 5368715 5368716 5368717 5368716 5368715 5368716 5368715 5368714 5368722 5368723 5368722 5368721 5368717 5368718 5368719 5368718 999999 0 10737418 10737418 
5368709 5368709 5368709 5368709 5368709 5368726 5368727 5368728 5368727 5368736 5368737 5368736 5368735 5368749 5368748 5368749 5368750 5368736 5368735 5368736 5368737 5368713 5368714 5368713 5368712 5368716 5368717 5368718 5368717 5368714 5368715 5368716 5368715 5368721 5368722 5368721 5368720 5368718 5368719 5368720 5368719 10737418 999999 0 10737418 
5368709 5368709 5368709 5368709 5368709 5368727 5368726 5368727 5368728 5368737 5368736 5368735 5368736 5368750 5368749 5368750 5368751 5368737 5368736 5368737 5368738 5368714 5368713 5368712 5368713 5368717 5368716 5368717 5368718 5368713 5368714 5368715 5368714 5368722 5368721 5368720 5368721 5368717 5368718 5368719 5368718 10737418 10737418 999999 0 
5368709 5368709 5368709 5368709 5368709 5368726 5368725 5368726 5368727 5368738 5368737 5368736 5368737 5368751 5368750 5368749 5368750 5368738 5368737 5368736 5368737 5368715 5368714 5368713 5368714 5368716 5368715 5368716 5368717 5368714 5368715 5368714 5368713 5368723 5368722 5368721 5368722 5368716 5368717 5368718 5368717 0 10737418 10737418 999999 
EOF
